135 5
10 10 10 10 10 

0 0 0 0 0 0 2 2 14 
0 0 0 0 0 0 3 3 6 8 
4 0 0 0 1 0 1 4 
6 0 0 0 8 0 2 7 5 
7 0 0 0 1 0 3 12 11 10 
5 0 0 0 4 0 4 12 11 10 62 
6 0 0 0 6 0 2 11 9 
8 0 0 0 6 0 2 11 9 
5 0 0 0 6 0 1 10 
10 0 0 0 7 0 1 13 
3 0 0 0 3 0 1 13 
9 0 0 0 8 0 1 13 
0 0 0 0 0 0 1 26 
0 0 0 0 0 0 4 15 19 20 24 
1 0 0 0 1 0 3 23 22 16 
3 0 0 0 7 0 2 17 56 
3 0 0 0 4 0 1 18 
7 0 0 0 6 0 1 21 
7 0 0 0 6 0 1 22 
9 0 0 0 4 0 1 21 
10 0 0 0 9 0 1 25 
8 0 0 0 4 0 1 25 
9 0 0 0 2 0 1 25 
5 0 0 0 7 0 1 25 
0 0 0 0 0 0 1 26 
0 0 0 0 0 0 2 27 39 
0 0 0 0 0 0 2 28 30 
3 0 1 0 0 0 1 29 
6 0 4 0 0 0 3 35 32 31 
7 0 7 0 0 0 3 35 31 82 
2 0 5 0 0 0 2 34 33 
8 0 6 0 0 0 2 37 34 
7 0 6 0 0 0 2 37 36 
8 0 7 0 0 0 1 36 
2 0 3 0 0 0 1 36 
3 0 5 0 0 0 1 38 
9 0 6 0 0 0 1 38 
0 0 0 0 0 0 1 51 
0 0 0 0 0 0 4 40 41 43 49 
1 0 0 0 1 0 3 46 44 72 
6 0 0 0 7 0 1 42 
10 0 0 0 5 0 1 44 
4 0 0 0 7 0 1 44 
10 0 0 0 8 0 2 48 45 
8 0 0 0 4 0 1 47 
4 0 0 0 4 0 1 47 
6 0 0 0 3 0 1 50 
5 0 0 0 6 0 1 50 
3 0 0 0 5 0 1 50 
0 0 0 0 0 0 1 51 
0 0 0 0 0 0 2 52 64 
0 0 0 0 0 0 3 53 54 58 
10 0 0 1 0 0 2 57 56 
10 0 0 5 0 0 1 55 
9 0 0 8 0 0 2 59 57 
1 0 0 4 0 0 2 60 59 
9 0 0 4 0 0 2 62 60 
1 0 0 6 0 0 2 62 60 
1 0 0 9 0 0 2 62 61 
5 0 0 3 0 0 1 61 
7 0 0 2 0 0 2 63 129 
6 0 0 8 0 0 1 63 
0 0 0 0 0 0 1 76 
0 0 0 0 0 0 2 65 66 
8 0 0 0 1 0 2 68 67 
4 0 0 0 7 0 1 67 
7 0 0 0 4 0 2 70 69 
5 0 0 0 6 0 2 70 69 
8 0 0 0 5 0 2 72 71 
5 0 0 0 4 0 2 72 71 
2 0 0 0 4 0 2 74 73 
6 0 0 0 3 0 2 73 86 
6 0 0 0 9 0 1 75 
1 0 0 0 7 0 1 75 
0 0 0 0 0 0 1 76 
0 0 0 0 0 0 2 77 89 
0 0 0 0 0 0 5 78 82 86 87 97 
2 1 0 0 0 0 3 85 84 79 
9 9 0 0 0 0 1 80 
1 4 0 0 0 0 1 81 
1 8 0 0 0 0 1 83 
7 4 0 0 0 0 1 84 
10 1 0 0 0 0 1 88 
5 6 0 0 0 0 1 88 
6 1 0 0 0 0 1 88 
5 7 0 0 0 0 1 88 
10 9 0 0 0 0 1 88 
0 0 0 0 0 0 2 111 123 
0 0 0 0 0 0 2 90 92 
8 1 0 1 0 0 2 95 91 
1 7 0 2 0 0 1 93 
7 8 0 7 0 0 1 93 
7 2 0 7 0 0 4 105 104 99 94 
3 8 0 8 0 0 4 103 98 96 133 
10 4 0 3 0 0 3 108 99 97 
10 4 0 5 0 0 2 108 97 
4 1 0 5 0 0 2 107 100 
3 9 0 6 0 0 2 107 101 
4 4 0 7 0 0 3 109 107 106 
8 4 0 2 0 0 1 101 
4 7 0 7 0 0 1 102 
7 3 0 5 0 0 1 106 
6 9 0 5 0 0 1 108 
9 7 0 9 0 0 1 109 
10 5 0 4 0 0 1 108 
1 5 0 2 0 0 1 110 
10 5 0 5 0 0 1 110 
10 4 0 6 0 0 1 110 
6 3 0 4 0 0 1 110 
0 0 0 0 0 0 1 135 
0 0 0 0 0 0 3 112 116 121 
6 0 0 0 1 0 2 114 113 
1 0 0 0 6 0 2 118 115 
10 0 0 0 4 0 2 118 115 
6 0 0 0 2 0 2 120 117 
10 0 0 0 6 0 2 118 117 
9 0 0 0 7 0 1 119 
2 0 0 0 6 0 2 119 132 
3 0 0 0 5 0 1 122 
5 0 0 0 6 0 1 122 
4 0 0 0 7 0 1 122 
0 0 0 0 0 0 1 135 
0 0 0 0 0 0 1 124 
1 0 1 0 0 0 2 128 125 
3 0 4 0 0 0 2 127 126 
2 0 5 0 0 0 3 133 130 129 
10 0 9 0 0 0 3 133 130 129 
5 0 3 0 0 0 3 133 130 129 
7 0 7 0 0 0 2 132 131 
4 0 7 0 0 0 1 131 
4 0 7 0 0 0 1 134 
1 0 2 0 0 0 1 134 
8 0 5 0 0 0 1 134 
0 0 0 0 0 0 1 135 
0 0 0 0 0 0 0 
